(set-logic QF_LIA)
(declare-fun x0 () Int)
(declare-fun x1 () Int)
(declare-fun x2 () Int)
(declare-fun x3 () Int)
(declare-fun x4 () Int)
(declare-fun x5 () Int)
(declare-fun x6 () Int)
(declare-fun x7 () Int)
(declare-fun x8 () Int)
(declare-fun x9 () Int)
(declare-fun A0 () Bool)
(declare-fun A1 () Bool)
(declare-fun A2 () Bool)
(declare-fun A3 () Bool)
(declare-fun A4 () Bool)
(declare-fun A5 () Bool)
(declare-fun A6 () Bool)
(declare-fun A7 () Bool)
(declare-fun A8 () Bool)
(declare-fun A9 () Bool)
(assert (let ((.def_0 (* (- 1) x9))) (let ((.def_1 (* (- 1) x4))) (let ((.def_2 (+ .def_1 .def_0))) (let ((.def_3 (< .def_2 1))) (let ((.def_4 (not .def_3))) (let ((.def_5 (not A9))) (let ((.def_6 (and .def_5 .def_4))) (let ((.def_7 (not .def_6))) (let ((.def_8 (* (- 1) x8))) (let ((.def_9 (< .def_8 (- 1)))) (let ((.def_10 (not A0))) (let ((.def_11 (and .def_10 .def_9))) (let ((.def_12 (not .def_11))) (let ((.def_13 (or .def_12 .def_7))) (let ((.def_14 (not .def_13))) (let ((.def_15 (* (- 1) x3))) (let ((.def_16 (* (- 1) x5))) (let ((.def_17 (+ .def_16 .def_15))) (let ((.def_18 (< .def_17 1))) (let ((.def_19 (* 1 x6))) (let ((.def_20 (+ .def_19 .def_15))) (let ((.def_21 (< .def_20 1))) (let ((.def_22 (not .def_21))) (let ((.def_23 (or .def_22 .def_18))) (let ((.def_24 (< .def_15 1))) (let ((.def_25 (and .def_24 .def_10))) (let ((.def_26 (and .def_25 .def_23))) (let ((.def_27 (not .def_26))) (let ((.def_28 (or .def_27 .def_14))) (let ((.def_29 (< .def_19 1))) (let ((.def_30 (= .def_29 A4))) (let ((.def_31 (* 1 x3))) (let ((.def_32 (< .def_31 (- 1)))) (let ((.def_33 (or A7 .def_32))) (let ((.def_34 (not .def_33))) (let ((.def_35 (and .def_34 .def_30))) (let ((.def_36 (not .def_35))) (let ((.def_37 (not A3))) (let ((.def_38 (= .def_37 A2))) (let ((.def_39 (not .def_38))) (let ((.def_40 (not A1))) (let ((.def_41 (or .def_40 A2))) (let ((.def_42 (and .def_41 .def_39))) (let ((.def_43 (not .def_42))) (let ((.def_44 (= .def_43 .def_36))) (let ((.def_45 (not .def_44))) (let ((.def_46 (or .def_45 .def_28))) (let ((.def_47 (not A7))) (let ((.def_48 (+ .def_8 .def_1))) (let ((.def_49 (< .def_48 1))) (let ((.def_50 (not .def_49))) (let ((.def_51 (or .def_50 .def_47))) (let ((.def_52 (not .def_51))) (let ((.def_53 (+ .def_8 .def_31))) (let ((.def_54 (< .def_53 (- 1)))) (let ((.def_55 (not .def_54))) (let ((.def_56 (not A8))) (let ((.def_57 (and .def_56 .def_55))) (let ((.def_58 (or .def_57 .def_52))) (let ((.def_59 (* (- 1) x6))) (let ((.def_60 (< .def_59 (- 1)))) (let ((.def_61 (not .def_60))) (let ((.def_62 (< .def_1 1))) (let ((.def_63 (or .def_62 .def_61))) (let ((.def_64 (* 1 x8))) (let ((.def_65 (+ .def_19 .def_64))) (let ((.def_66 (< .def_65 1))) (let ((.def_67 (not .def_66))) (let ((.def_68 (or .def_67 .def_40))) (let ((.def_69 (or .def_68 .def_63))) (let ((.def_70 (and .def_69 .def_58))) (let ((.def_71 (* 1 x1))) (let ((.def_72 (< .def_71 (- 1)))) (let ((.def_73 (and .def_72 A5))) (let ((.def_74 (not .def_73))) (let ((.def_75 (* 1 x9))) (let ((.def_76 (< .def_75 1))) (let ((.def_77 (not .def_76))) (let ((.def_78 (and .def_61 .def_77))) (let ((.def_79 (not .def_78))) (let ((.def_80 (and .def_79 .def_74))) (let ((.def_81 (not A4))) (let ((.def_82 (and .def_81 .def_40))) (let ((.def_83 (and A4 A6))) (let ((.def_84 (and .def_83 .def_82))) (let ((.def_85 (not .def_84))) (let ((.def_86 (or .def_85 .def_80))) (let ((.def_87 (not .def_86))) (let ((.def_88 (or .def_87 .def_70))) (let ((.def_89 (and .def_88 .def_46))) (let ((.def_90 (+ .def_59 .def_15))) (let ((.def_91 (< .def_90 (- 1)))) (let ((.def_92 (not .def_91))) (let ((.def_93 (or .def_37 .def_92))) (let ((.def_94 (* (- 1) x1))) (let ((.def_95 (+ .def_31 .def_94))) (let ((.def_96 (< .def_95 (- 1)))) (let ((.def_97 (and A8 .def_96))) (let ((.def_98 (not .def_97))) (let ((.def_99 (and .def_98 .def_93))) (let ((.def_100 (* 1 x0))) (let ((.def_101 (< .def_100 1))) (let ((.def_102 (not .def_101))) (let ((.def_103 (not A6))) (let ((.def_104 (and .def_103 .def_102))) (let ((.def_105 (not .def_104))) (let ((.def_106 (* (- 1) x0))) (let ((.def_107 (< .def_106 (- 1)))) (let ((.def_108 (or .def_5 .def_107))) (let ((.def_109 (not .def_108))) (let ((.def_110 (and .def_109 .def_105))) (let ((.def_111 (and .def_110 .def_99))) (let ((.def_112 (not .def_111))) (let ((.def_113 (not A2))) (let ((.def_114 (or .def_81 .def_113))) (let ((.def_115 (not .def_114))) (let ((.def_116 (* (- 1) x7))) (let ((.def_117 (< .def_116 (- 1)))) (let ((.def_118 (not .def_117))) (let ((.def_119 (and A2 .def_118))) (let ((.def_120 (not .def_119))) (let ((.def_121 (or .def_120 .def_115))) (let ((.def_122 (not .def_107))) (let ((.def_123 (+ .def_116 .def_64))) (let ((.def_124 (< .def_123 (- 1)))) (let ((.def_125 (= .def_124 .def_122))) (let ((.def_126 (not .def_125))) (let ((.def_127 (< .def_64 1))) (let ((.def_128 (not .def_127))) (let ((.def_129 (or .def_128 .def_128))) (let ((.def_130 (or .def_129 .def_126))) (let ((.def_131 (not .def_130))) (let ((.def_132 (or .def_131 .def_121))) (let ((.def_133 (and .def_132 .def_112))) (let ((.def_134 (not .def_133))) (let ((.def_135 (and A4 A2))) (let ((.def_136 (not .def_135))) (let ((.def_137 (< .def_100 (- 1)))) (let ((.def_138 (and .def_37 .def_137))) (let ((.def_139 (not .def_138))) (let ((.def_140 (and .def_139 .def_136))) (let ((.def_141 (or A9 A5))) (let ((.def_142 (not .def_141))) (let ((.def_143 (+ .def_116 .def_8))) (let ((.def_144 (< .def_143 (- 1)))) (let ((.def_145 (not .def_144))) (let ((.def_146 (< .def_1 (- 1)))) (let ((.def_147 (and .def_146 .def_145))) (let ((.def_148 (or .def_147 .def_142))) (let ((.def_149 (not .def_148))) (let ((.def_150 (and .def_149 .def_140))) (let ((.def_151 (not .def_150))) (let ((.def_152 (not .def_29))) (let ((.def_153 (* 1 x5))) (let ((.def_154 (< .def_153 (- 1)))) (let ((.def_155 (not .def_154))) (let ((.def_156 (and .def_155 .def_152))) (let ((.def_157 (* (- 1) x2))) (let ((.def_158 (< .def_157 (- 1)))) (let ((.def_159 (not .def_158))) (let ((.def_160 (+ .def_31 .def_71))) (let ((.def_161 (< .def_160 (- 1)))) (let ((.def_162 (or .def_161 .def_159))) (let ((.def_163 (not .def_162))) (let ((.def_164 (or .def_163 .def_156))) (let ((.def_165 (+ .def_15 .def_0))) (let ((.def_166 (< .def_165 (- 1)))) (let ((.def_167 (and .def_166 .def_5))) (let ((.def_168 (+ .def_31 .def_1))) (let ((.def_169 (< .def_168 (- 1)))) (let ((.def_170 (not .def_169))) (let ((.def_171 (+ .def_1 .def_153))) (let ((.def_172 (< .def_171 1))) (let ((.def_173 (not .def_172))) (let ((.def_174 (= .def_173 .def_170))) (let ((.def_175 (and .def_174 .def_167))) (let ((.def_176 (or .def_175 .def_164))) (let ((.def_177 (not .def_176))) (let ((.def_178 (or .def_177 .def_151))) (let ((.def_179 (or .def_178 .def_134))) (let ((.def_180 (not .def_179))) (let ((.def_181 (and .def_180 .def_89))) (let ((.def_182 (not .def_181))) (let ((.def_183 (+ .def_75 .def_157))) (let ((.def_184 (< .def_183 1))) (let ((.def_185 (not .def_184))) (let ((.def_186 (or .def_185 .def_144))) (let ((.def_187 (not .def_186))) (let ((.def_188 (+ .def_15 .def_100))) (let ((.def_189 (< .def_188 1))) (let ((.def_190 (not .def_189))) (let ((.def_191 (= .def_190 A7))) (let ((.def_192 (and .def_191 .def_187))) (let ((.def_193 (not .def_192))) (let ((.def_194 (or .def_5 .def_47))) (let ((.def_195 (* 1 x4))) (let ((.def_196 (+ .def_100 .def_195))) (let ((.def_197 (< .def_196 1))) (let ((.def_198 (and .def_197 .def_47))) (let ((.def_199 (or .def_198 .def_194))) (let ((.def_200 (or .def_199 .def_193))) (let ((.def_201 (not .def_200))) (let ((.def_202 (or A7 .def_113))) (let ((.def_203 (not .def_202))) (let ((.def_204 (and A7 .def_56))) (let ((.def_205 (or .def_204 .def_203))) (let ((.def_206 (not .def_205))) (let ((.def_207 (or .def_113 A2))) (let ((.def_208 (not .def_207))) (let ((.def_209 (and A3 A2))) (let ((.def_210 (and .def_209 .def_208))) (let ((.def_211 (not .def_210))) (let ((.def_212 (or .def_211 .def_206))) (let ((.def_213 (not .def_212))) (let ((.def_214 (or .def_213 .def_201))) (let ((.def_215 (not .def_214))) (let ((.def_216 (* 1 x7))) (let ((.def_217 (+ .def_19 .def_216))) (let ((.def_218 (< .def_217 1))) (let ((.def_219 (and .def_137 .def_218))) (let ((.def_220 (not .def_219))) (let ((.def_221 (< .def_94 (- 1)))) (let ((.def_222 (not .def_221))) (let ((.def_223 (and .def_222 A1))) (let ((.def_224 (not .def_223))) (let ((.def_225 (or .def_224 .def_220))) (let ((.def_226 (or .def_40 A9))) (let ((.def_227 (not .def_226))) (let ((.def_228 (+ .def_94 .def_216))) (let ((.def_229 (< .def_228 1))) (let ((.def_230 (not .def_229))) (let ((.def_231 (and .def_230 A4))) (let ((.def_232 (= .def_231 .def_227))) (let ((.def_233 (not .def_232))) (let ((.def_234 (or .def_233 .def_225))) (let ((.def_235 (not .def_234))) (let ((.def_236 (= .def_81 .def_10))) (let ((.def_237 (< .def_48 (- 1)))) (let ((.def_238 (not .def_237))) (let ((.def_239 (< .def_216 (- 1)))) (let ((.def_240 (not .def_239))) (let ((.def_241 (or .def_240 .def_238))) (let ((.def_242 (not .def_241))) (let ((.def_243 (and .def_242 .def_236))) (let ((.def_244 (+ .def_8 .def_59))) (let ((.def_245 (< .def_244 (- 1)))) (let ((.def_246 (= .def_107 .def_245))) (let ((.def_247 (not .def_246))) (let ((.def_248 (+ .def_94 .def_195))) (let ((.def_249 (< .def_248 1))) (let ((.def_250 (not .def_249))) (let ((.def_251 (or .def_37 .def_250))) (let ((.def_252 (and .def_251 .def_247))) (let ((.def_253 (and .def_252 .def_243))) (let ((.def_254 (not .def_253))) (let ((.def_255 (and .def_254 .def_235))) (let ((.def_256 (or .def_255 .def_215))) (let ((.def_257 (not .def_256))) (let ((.def_258 (< .def_59 1))) (let ((.def_259 (and .def_258 A6))) (let ((.def_260 (not .def_259))) (let ((.def_261 (not .def_9))) (let ((.def_262 (or .def_261 .def_56))) (let ((.def_263 (or .def_262 .def_260))) (let ((.def_264 (not .def_263))) (let ((.def_265 (not .def_258))) (let ((.def_266 (< .def_31 1))) (let ((.def_267 (not .def_266))) (let ((.def_268 (or .def_267 .def_265))) (let ((.def_269 (not .def_41))) (let ((.def_270 (and .def_269 .def_268))) (let ((.def_271 (not .def_270))) (let ((.def_272 (and .def_271 .def_264))) (let ((.def_273 (not .def_272))) (let ((.def_274 (and .def_47 .def_81))) (let ((.def_275 (and .def_47 .def_266))) (let ((.def_276 (and .def_275 .def_274))) (let ((.def_277 (not .def_276))) (let ((.def_278 (+ .def_64 .def_216))) (let ((.def_279 (< .def_278 1))) (let ((.def_280 (and A2 .def_279))) (let ((.def_281 (or .def_5 A1))) (let ((.def_282 (or .def_281 .def_280))) (let ((.def_283 (not .def_282))) (let ((.def_284 (or .def_283 .def_277))) (let ((.def_285 (or .def_284 .def_273))) (let ((.def_286 (not .def_285))) (let ((.def_287 (< .def_116 1))) (let ((.def_288 (< .def_106 1))) (let ((.def_289 (and .def_288 .def_287))) (let ((.def_290 (not .def_289))) (let ((.def_291 (+ .def_157 .def_216))) (let ((.def_292 (< .def_291 (- 1)))) (let ((.def_293 (and A7 .def_292))) (let ((.def_294 (not .def_293))) (let ((.def_295 (and .def_294 .def_290))) (let ((.def_296 (not .def_295))) (let ((.def_297 (+ .def_195 .def_153))) (let ((.def_298 (< .def_297 1))) (let ((.def_299 (* 1 x2))) (let ((.def_300 (< .def_299 (- 1)))) (let ((.def_301 (and .def_300 .def_298))) (let ((.def_302 (+ .def_216 .def_8))) (let ((.def_303 (< .def_302 1))) (let ((.def_304 (not .def_303))) (let ((.def_305 (not A5))) (let ((.def_306 (or .def_305 .def_304))) (let ((.def_307 (not .def_306))) (let ((.def_308 (and .def_307 .def_301))) (let ((.def_309 (or .def_308 .def_296))) (let ((.def_310 (< .def_16 1))) (let ((.def_311 (not .def_310))) (let ((.def_312 (or .def_47 .def_311))) (let ((.def_313 (not .def_312))) (let ((.def_314 (< .def_15 (- 1)))) (let ((.def_315 (not .def_314))) (let ((.def_316 (or .def_315 .def_305))) (let ((.def_317 (not .def_316))) (let ((.def_318 (and .def_317 .def_313))) (let ((.def_319 (< .def_0 1))) (let ((.def_320 (or A4 .def_319))) (let ((.def_321 (and .def_47 A5))) (let ((.def_322 (or .def_321 .def_320))) (let ((.def_323 (not .def_322))) (let ((.def_324 (and .def_323 .def_318))) (let ((.def_325 (not .def_324))) (let ((.def_326 (and .def_325 .def_309))) (let ((.def_327 (not .def_326))) (let ((.def_328 (and .def_327 .def_286))) (let ((.def_329 (not .def_328))) (let ((.def_330 (or .def_329 .def_257))) (let ((.def_331 (and .def_330 .def_182))) (let ((.def_332 (not .def_331))) (let ((.def_333 (not .def_288))) (let ((.def_334 (or .def_333 .def_300))) (let ((.def_335 (and .def_103 .def_265))) (let ((.def_336 (= .def_335 .def_334))) (let ((.def_337 (not .def_336))) (let ((.def_338 (< .def_64 (- 1)))) (let ((.def_339 (not .def_338))) (let ((.def_340 (not .def_287))) (let ((.def_341 (= .def_340 .def_339))) (let ((.def_342 (or .def_113 .def_24))) (let ((.def_343 (not .def_342))) (let ((.def_344 (and .def_343 .def_341))) (let ((.def_345 (not .def_344))) (let ((.def_346 (or .def_345 .def_337))) (let ((.def_347 (not .def_346))) (let ((.def_348 (and .def_113 .def_47))) (let ((.def_349 (not .def_348))) (let ((.def_350 (< .def_19 (- 1)))) (let ((.def_351 (not .def_350))) (let ((.def_352 (and .def_351 .def_137))) (let ((.def_353 (not .def_352))) (let ((.def_354 (or .def_353 .def_349))) (let ((.def_355 (not .def_354))) (let ((.def_356 (= .def_37 .def_154))) (let ((.def_357 (+ .def_19 .def_116))) (let ((.def_358 (< .def_357 1))) (let ((.def_359 (not .def_358))) (let ((.def_360 (and .def_359 .def_287))) (let ((.def_361 (or .def_360 .def_356))) (let ((.def_362 (not .def_361))) (let ((.def_363 (or .def_362 .def_355))) (let ((.def_364 (or .def_363 .def_347))) (let ((.def_365 (and .def_144 A8))) (let ((.def_366 (+ .def_100 .def_71))) (let ((.def_367 (< .def_366 (- 1)))) (let ((.def_368 (and .def_146 .def_367))) (let ((.def_369 (not .def_368))) (let ((.def_370 (or .def_369 .def_365))) (let ((.def_371 (not .def_370))) (let ((.def_372 (or .def_265 A4))) (let ((.def_373 (not .def_372))) (let ((.def_374 (+ .def_71 .def_157))) (let ((.def_375 (< .def_374 1))) (let ((.def_376 (and .def_375 A0))) (let ((.def_377 (not .def_376))) (let ((.def_378 (or .def_377 .def_373))) (let ((.def_379 (and .def_378 .def_371))) (let ((.def_380 (= A9 .def_81))) (let ((.def_381 (not .def_380))) (let ((.def_382 (= .def_47 A2))) (let ((.def_383 (not .def_382))) (let ((.def_384 (or .def_383 .def_381))) (let ((.def_385 (not .def_384))) (let ((.def_386 (+ .def_0 .def_153))) (let ((.def_387 (< .def_386 (- 1)))) (let ((.def_388 (= A3 .def_387))) (let ((.def_389 (and .def_10 .def_10))) (let ((.def_390 (or .def_389 .def_388))) (let ((.def_391 (not .def_390))) (let ((.def_392 (and .def_391 .def_385))) (let ((.def_393 (not .def_392))) (let ((.def_394 (or .def_393 .def_379))) (let ((.def_395 (not .def_394))) (let ((.def_396 (or .def_395 .def_364))) (let ((.def_397 (+ .def_0 .def_31))) (let ((.def_398 (< .def_397 1))) (let ((.def_399 (not .def_398))) (let ((.def_400 (+ .def_100 .def_59))) (let ((.def_401 (< .def_400 (- 1)))) (let ((.def_402 (not .def_401))) (let ((.def_403 (or .def_402 .def_399))) (let ((.def_404 (< .def_195 (- 1)))) (let ((.def_405 (not .def_404))) (let ((.def_406 (or .def_405 .def_221))) (let ((.def_407 (not .def_406))) (let ((.def_408 (or .def_407 .def_403))) (let ((.def_409 (= .def_350 .def_146))) (let ((.def_410 (not .def_409))) (let ((.def_411 (+ .def_64 .def_0))) (let ((.def_412 (< .def_411 1))) (let ((.def_413 (not .def_412))) (let ((.def_414 (+ .def_157 .def_59))) (let ((.def_415 (< .def_414 1))) (let ((.def_416 (not .def_415))) (let ((.def_417 (or .def_416 .def_413))) (let ((.def_418 (not .def_417))) (let ((.def_419 (= .def_418 .def_410))) (let ((.def_420 (not .def_419))) (let ((.def_421 (or .def_420 .def_408))) (let ((.def_422 (not .def_32))) (let ((.def_423 (or .def_422 .def_81))) (let ((.def_424 (not .def_423))) (let ((.def_425 (or A1 .def_81))) (let ((.def_426 (not .def_425))) (let ((.def_427 (or .def_426 .def_424))) (let ((.def_428 (< .def_75 (- 1)))) (let ((.def_429 (and .def_428 .def_56))) (let ((.def_430 (+ .def_195 .def_59))) (let ((.def_431 (< .def_430 (- 1)))) (let ((.def_432 (not .def_431))) (let ((.def_433 (and .def_432 A1))) (let ((.def_434 (not .def_433))) (let ((.def_435 (or .def_434 .def_429))) (let ((.def_436 (or .def_435 .def_427))) (let ((.def_437 (not .def_436))) (let ((.def_438 (and .def_437 .def_421))) (let ((.def_439 (not .def_438))) (let ((.def_440 (< .def_90 1))) (let ((.def_441 (not .def_440))) (let ((.def_442 (+ .def_1 .def_116))) (let ((.def_443 (< .def_442 1))) (let ((.def_444 (not .def_443))) (let ((.def_445 (or .def_444 .def_441))) (let ((.def_446 (+ .def_216 .def_0))) (let ((.def_447 (< .def_446 (- 1)))) (let ((.def_448 (or .def_447 .def_40))) (let ((.def_449 (= .def_448 .def_445))) (let ((.def_450 (not .def_62))) (let ((.def_451 (and .def_40 .def_450))) (let ((.def_452 (or .def_103 A0))) (let ((.def_453 (or .def_452 .def_451))) (let ((.def_454 (not .def_453))) (let ((.def_455 (or .def_454 .def_449))) (let ((.def_456 (and .def_305 .def_117))) (let ((.def_457 (not .def_456))) (let ((.def_458 (+ .def_59 .def_0))) (let ((.def_459 (< .def_458 (- 1)))) (let ((.def_460 (or .def_459 .def_37))) (let ((.def_461 (and .def_460 .def_457))) (let ((.def_462 (not .def_461))) (let ((.def_463 (and .def_101 .def_287))) (let ((.def_464 (not .def_463))) (let ((.def_465 (+ .def_299 .def_64))) (let ((.def_466 (< .def_465 (- 1)))) (let ((.def_467 (and .def_305 .def_466))) (let ((.def_468 (not .def_467))) (let ((.def_469 (or .def_468 .def_464))) (let ((.def_470 (not .def_469))) (let ((.def_471 (and .def_470 .def_462))) (let ((.def_472 (and .def_471 .def_455))) (let ((.def_473 (not .def_472))) (let ((.def_474 (= .def_473 .def_439))) (let ((.def_475 (not .def_474))) (let ((.def_476 (= .def_475 .def_396))) (let ((.def_477 (+ .def_64 .def_1))) (let ((.def_478 (< .def_477 1))) (let ((.def_479 (not .def_478))) (let ((.def_480 (or .def_479 A9))) (let ((.def_481 (not .def_480))) (let ((.def_482 (or .def_10 .def_40))) (let ((.def_483 (not .def_482))) (let ((.def_484 (and .def_483 .def_481))) (let ((.def_485 (not .def_484))) (let ((.def_486 (or .def_305 A9))) (let ((.def_487 (< .def_195 1))) (let ((.def_488 (+ .def_116 .def_94))) (let ((.def_489 (< .def_488 (- 1)))) (let ((.def_490 (or .def_489 .def_487))) (let ((.def_491 (or .def_490 .def_486))) (let ((.def_492 (= .def_491 .def_485))) (let ((.def_493 (or .def_81 .def_266))) (let ((.def_494 (< .def_16 (- 1)))) (let ((.def_495 (and .def_158 .def_494))) (let ((.def_496 (or .def_495 .def_493))) (let ((.def_497 (not .def_496))) (let ((.def_498 (+ .def_106 .def_16))) (let ((.def_499 (< .def_498 1))) (let ((.def_500 (not .def_499))) (let ((.def_501 (and .def_40 .def_500))) (let ((.def_502 (not .def_501))) (let ((.def_503 (+ .def_1 .def_16))) (let ((.def_504 (< .def_503 (- 1)))) (let ((.def_505 (not .def_146))) (let ((.def_506 (or .def_505 .def_504))) (let ((.def_507 (not .def_506))) (let ((.def_508 (or .def_507 .def_502))) (let ((.def_509 (and .def_508 .def_497))) (let ((.def_510 (= .def_509 .def_492))) (let ((.def_511 (not .def_510))) (let ((.def_512 (+ .def_153 .def_31))) (let ((.def_513 (< .def_512 (- 1)))) (let ((.def_514 (not .def_513))) (let ((.def_515 (and .def_514 .def_37))) (let ((.def_516 (+ .def_0 .def_157))) (let ((.def_517 (< .def_516 1))) (let ((.def_518 (and .def_517 .def_103))) (let ((.def_519 (not .def_518))) (let ((.def_520 (or .def_519 .def_515))) (let ((.def_521 (not .def_520))) (let ((.def_522 (or .def_117 .def_37))) (let ((.def_523 (not .def_522))) (let ((.def_524 (+ .def_19 .def_8))) (let ((.def_525 (< .def_524 (- 1)))) (let ((.def_526 (not .def_525))) (let ((.def_527 (and .def_526 .def_56))) (let ((.def_528 (or .def_527 .def_523))) (let ((.def_529 (and .def_528 .def_521))) (let ((.def_530 (+ .def_116 .def_299))) (let ((.def_531 (< .def_530 (- 1)))) (let ((.def_532 (not .def_531))) (let ((.def_533 (< .def_71 1))) (let ((.def_534 (or .def_533 .def_532))) (let ((.def_535 (or A5 A9))) (let ((.def_536 (not .def_535))) (let ((.def_537 (or .def_536 .def_534))) (let ((.def_538 (and .def_5 .def_103))) (let ((.def_539 (not .def_538))) (let ((.def_540 (or .def_267 .def_311))) (let ((.def_541 (not .def_540))) (let ((.def_542 (or .def_541 .def_539))) (let ((.def_543 (and .def_542 .def_537))) (let ((.def_544 (not .def_543))) (let ((.def_545 (and .def_544 .def_529))) (let ((.def_546 (not .def_545))) (let ((.def_547 (and .def_546 .def_511))) (let ((.def_548 (not .def_547))) (let ((.def_549 (< .def_153 1))) (let ((.def_550 (not .def_549))) (let ((.def_551 (and .def_550 .def_47))) (let ((.def_552 (not .def_489))) (let ((.def_553 (+ .def_71 .def_19))) (let ((.def_554 (< .def_553 (- 1)))) (let ((.def_555 (not .def_554))) (let ((.def_556 (and .def_555 .def_552))) (let ((.def_557 (and .def_556 .def_551))) (let ((.def_558 (not .def_557))) (let ((.def_559 (+ .def_116 .def_100))) (let ((.def_560 (< .def_559 (- 1)))) (let ((.def_561 (and .def_560 A0))) (let ((.def_562 (+ .def_195 .def_75))) (let ((.def_563 (< .def_562 (- 1)))) (let ((.def_564 (not .def_563))) (let ((.def_565 (< .def_488 1))) (let ((.def_566 (not .def_565))) (let ((.def_567 (and .def_566 .def_564))) (let ((.def_568 (not .def_567))) (let ((.def_569 (= .def_568 .def_561))) (let ((.def_570 (and .def_569 .def_558))) (let ((.def_571 (not .def_570))) (let ((.def_572 (+ .def_157 .def_64))) (let ((.def_573 (< .def_572 (- 1)))) (let ((.def_574 (not .def_573))) (let ((.def_575 (+ .def_195 .def_16))) (let ((.def_576 (< .def_575 (- 1)))) (let ((.def_577 (not .def_576))) (let ((.def_578 (and .def_577 .def_574))) (let ((.def_579 (+ .def_216 .def_153))) (let ((.def_580 (< .def_579 1))) (let ((.def_581 (or .def_580 .def_404))) (let ((.def_582 (not .def_581))) (let ((.def_583 (or .def_582 .def_578))) (let ((.def_584 (not .def_583))) (let ((.def_585 (+ .def_16 .def_1))) (let ((.def_586 (< .def_585 (- 1)))) (let ((.def_587 (and .def_586 A7))) (let ((.def_588 (not .def_587))) (let ((.def_589 (< .def_0 (- 1)))) (let ((.def_590 (not .def_589))) (let ((.def_591 (or .def_300 .def_590))) (let ((.def_592 (and .def_591 .def_588))) (let ((.def_593 (not .def_592))) (let ((.def_594 (and .def_593 .def_584))) (let ((.def_595 (and .def_594 .def_571))) (let ((.def_596 (+ .def_195 .def_157))) (let ((.def_597 (< .def_596 1))) (let ((.def_598 (or .def_597 A7))) (let ((.def_599 (= .def_5 .def_117))) (let ((.def_600 (not .def_599))) (let ((.def_601 (= .def_600 .def_598))) (let ((.def_602 (and .def_103 A0))) (let ((.def_603 (and .def_101 .def_10))) (let ((.def_604 (or .def_603 .def_602))) (let ((.def_605 (not .def_604))) (let ((.def_606 (= .def_605 .def_601))) (let ((.def_607 (+ .def_94 .def_8))) (let ((.def_608 (< .def_607 1))) (let ((.def_609 (and .def_608 A8))) (let ((.def_610 (not .def_609))) (let ((.def_611 (+ .def_216 .def_59))) (let ((.def_612 (< .def_611 (- 1)))) (let ((.def_613 (not .def_612))) (let ((.def_614 (= .def_613 .def_56))) (let ((.def_615 (not .def_614))) (let ((.def_616 (or .def_615 .def_610))) (let ((.def_617 (and A4 .def_81))) (let ((.def_618 (not .def_617))) (let ((.def_619 (or A6 A7))) (let ((.def_620 (or .def_619 .def_618))) (let ((.def_621 (not .def_620))) (let ((.def_622 (and .def_621 .def_616))) (let ((.def_623 (and .def_622 .def_606))) (let ((.def_624 (and .def_623 .def_595))) (let ((.def_625 (= .def_624 .def_548))) (let ((.def_626 (or .def_625 .def_476))) (let ((.def_627 (not .def_626))) (let ((.def_628 (or .def_627 .def_332))) (let ((.def_629 (<= x9 1))) (let ((.def_630 (<= 0 x9))) (let ((.def_631 (<= x8 1))) (let ((.def_632 (<= 0 x8))) (let ((.def_633 (<= x7 1))) (let ((.def_634 (<= 0 x7))) (let ((.def_635 (<= x6 1))) (let ((.def_636 (<= 0 x6))) (let ((.def_637 (<= x5 1))) (let ((.def_638 (<= 0 x5))) (let ((.def_639 (<= x4 1))) (let ((.def_640 (<= 0 x4))) (let ((.def_641 (<= x3 1))) (let ((.def_642 (<= 0 x3))) (let ((.def_643 (<= x2 1))) (let ((.def_644 (<= 0 x2))) (let ((.def_645 (<= x1 1))) (let ((.def_646 (<= 0 x1))) (let ((.def_647 (<= x0 1))) (let ((.def_648 (<= 0 x0))) (let ((.def_649 (and .def_648 .def_647 .def_646 .def_645 .def_644 .def_643 .def_642 .def_641 .def_640 .def_639 .def_638 .def_637 .def_636 .def_635 .def_634 .def_633 .def_632 .def_631 .def_630 .def_629 .def_628))) .def_649)))))))))))))))))))))))))))))))))))))))))))))))))))))))))))))))))))))))))))))))))))))))))))))))))))))))))))))))))))))))))))))))))))))))))))))))))))))))))))))))))))))))))))))))))))))))))))))))))))))))))))))))))))))))))))))))))))))))))))))))))))))))))))))))))))))))))))))))))))))))))))))))))))))))))))))))))))))))))))))))))))))))))))))))))))))))))))))))))))))))))))))))))))))))))))))))))))))))))))))))))))))))))))))))))))))))))))))))))))))))))))))))))))))))))))))))))))))))))))))))))))))))))))))))))))))))))))))))))))))))))))))))))))))))))))))))))))))))))))))))))))))))))))))))))))))))))))))))))))))))))))))))))))))))))))))))))))))))))))))))))))))))))))
(check-sat)
